letting n =  10
letting blocks =  [[1, 3], [3, 2], [3, 3], [3, 6], [4, 4], [4, 5], [6, 4], [6, 5], [6, 6], [6, 10], [7, 5], [8, 8], [8, 9], [8, 10], [9, 2], [10, 5], [10, 7], [10, 8], [10, 9], [10, 10]]
